VACCINE = Vaccine(1..2);
m = 24;
age = [SENIOR, BABY, AGED, YOUTH, ANCIENT, AGED, YOUTH, SENIOR, SENIOR, CHILD, YOUTH, ANCIENT, ANCIENT, ADULT, SENIOR, BABY, SENIOR, ADULT, YOUTH, AGED, AGED, BABY, YOUTH, ADULT];
gender = [FEMALE, MALE, MALE, MALE, FEMALE, OTHER, MALE, FEMALE, OTHER, MALE, FEMALE, FEMALE, OTHER, FEMALE, MALE, FEMALE, FEMALE, OTHER, MALE, MALE, OTHER, MALE, FEMALE, MALE];
health = [COMPROMISED, GOOD, GOOD, POOR, COMPROMISED, GOOD, COMPROMISED, COMPROMISED, GOOD, POOR, POOR, GOOD, GOOD, GOOD, POOR, COMPROMISED, COMPROMISED, POOR, POOR, GOOD, POOR, COMPROMISED, GOOD, COMPROMISED];
exposure = [LOW, LOW, AVERAGE, EXTREME, LOW, LOW, AVERAGE, EXTREME, EXTREME, LOW, AVERAGE, AVERAGE, HIGH, HIGH, AVERAGE, AVERAGE, HIGH, EXTREME, HIGH, HIGH, EXTREME, AVERAGE, HIGH, AVERAGE];
size = [10, 9, 13, 12, 8, 8, 11, 11, 12, 13, 9, 13, 10, 8, 9, 9, 8, 12, 13, 10, 10, 13, 12, 9];
minsize = 8;
age_group_min = [0, 0, 1, 0, 0, 1, 0];
age_group_max = [15, 16, 14, 22, 22, 23, 8];
max_people_diff = 108;
max_share_vaccines = 2;
health_information = {1, 9, 24};
exposure_information = {2, 3, 16, 17};